TIP.Original.Linear/tip2015_weird_nat_mul3acc_rrot.smt2
(set-logic HORN)
(declare-datatypes ((Nat_476 0)) (((zero_125 ) (succ_122 (p_346 Nat_476)))))
(declare-fun diseqNat_476 (Nat_476 Nat_476) Bool)
(declare-fun p_347 (Nat_476 Nat_476) Bool)
(declare-fun iszero_122 (Nat_476) Bool)
(declare-fun issucc_122 (Nat_476) Bool)
(assert (forall ((x_51199 Nat_476))
	(p_347 x_51199 (succ_122 x_51199))))
(assert (iszero_122 zero_125))
(assert (forall ((x_51201 Nat_476))
	(issucc_122 (succ_122 x_51201))))
(assert (forall ((x_51202 Nat_476))
	(diseqNat_476 zero_125 (succ_122 x_51202))))
(assert (forall ((x_51203 Nat_476))
	(diseqNat_476 (succ_122 x_51203) zero_125)))
(assert (forall ((x_51204 Nat_476) (x_51205 Nat_476))
	(=> (diseqNat_476 x_51204 x_51205)
	    (diseqNat_476 (succ_122 x_51204) (succ_122 x_51205)))))
(declare-fun plus_118 (Nat_476 Nat_476 Nat_476) Bool)
(assert (forall ((x_51105 Nat_476) (z_1695 Nat_476) (y_1900 Nat_476))
	(=> (plus_118 x_51105 z_1695 y_1900)
	    (plus_118 (succ_122 x_51105) (succ_122 z_1695) y_1900))))
(assert (forall ((x_51106 Nat_476))
	(plus_118 x_51106 zero_125 x_51106)))
(declare-fun addacc_17 (Nat_476 Nat_476 Nat_476 Nat_476) Bool)
(assert (forall ((x_51107 Nat_476) (x_51093 Nat_476) (y_1901 Nat_476) (z_1696 Nat_476))
	(=> (addacc_17 x_51107 x_51093 (succ_122 y_1901) z_1696)
	    (addacc_17 x_51107 (succ_122 x_51093) y_1901 z_1696))))
(assert (forall ((x_51109 Nat_476) (x_51094 Nat_476) (z_1696 Nat_476))
	(=> (addacc_17 x_51109 zero_125 x_51094 (succ_122 z_1696))
	    (addacc_17 x_51109 zero_125 (succ_122 x_51094) z_1696))))
(assert (forall ((x_51111 Nat_476))
	(addacc_17 x_51111 zero_125 zero_125 x_51111)))
(declare-fun mulacc_7 (Nat_476 Nat_476 Nat_476 Nat_476) Bool)
(assert (forall ((x_51112 Nat_476) (x_51113 Nat_476) (x_51114 Nat_476) (x_51115 Nat_476) (x_51116 Nat_476) (x_51117 Nat_476) (x_51118 Nat_476) (fail_27 Nat_476))
	(=>	(and (mulacc_7 x_51112 zero_125 zero_125 zero_125)
			(mulacc_7 x_51113 (succ_122 zero_125) zero_125 zero_125)
			(mulacc_7 x_51114 zero_125 (succ_122 zero_125) zero_125)
			(mulacc_7 x_51115 zero_125 zero_125 (succ_122 zero_125))
			(addacc_17 x_51116 x_51113 x_51114 x_51115)
			(addacc_17 x_51117 (succ_122 zero_125) (succ_122 zero_125) (succ_122 zero_125))
			(addacc_17 x_51118 x_51112 x_51116 x_51117)
			(plus_118 fail_27 (succ_122 zero_125) x_51118))
		(mulacc_7 (succ_122 zero_125) (succ_122 zero_125) (succ_122 zero_125) (succ_122 zero_125)))))
(assert (forall ((x_51121 Nat_476) (x_51122 Nat_476) (x_51123 Nat_476) (x_51124 Nat_476) (x_51125 Nat_476) (x_51126 Nat_476) (x_51127 Nat_476) (fail_27 Nat_476) (x_51098 Nat_476) (x_51097 Nat_476) (x_51096 Nat_476))
	(=>	(and (diseqNat_476 x_51096 zero_125)
			(mulacc_7 x_51121 x_51096 x_51097 x_51098)
			(mulacc_7 x_51122 (succ_122 zero_125) x_51097 x_51098)
			(mulacc_7 x_51123 x_51096 (succ_122 zero_125) x_51098)
			(mulacc_7 x_51124 x_51096 x_51097 (succ_122 zero_125))
			(addacc_17 x_51125 x_51122 x_51123 x_51124)
			(addacc_17 x_51126 (succ_122 x_51096) (succ_122 x_51097) (succ_122 x_51098))
			(addacc_17 x_51127 x_51121 x_51125 x_51126)
			(plus_118 fail_27 (succ_122 zero_125) x_51127))
		(mulacc_7 fail_27 (succ_122 x_51096) (succ_122 x_51097) (succ_122 x_51098)))))
(assert (forall ((x_51130 Nat_476) (x_51131 Nat_476) (x_51132 Nat_476) (x_51133 Nat_476) (x_51134 Nat_476) (x_51135 Nat_476) (x_51136 Nat_476) (fail_27 Nat_476) (x_51098 Nat_476) (x_51097 Nat_476))
	(=>	(and (diseqNat_476 x_51097 zero_125)
			(mulacc_7 x_51130 zero_125 x_51097 x_51098)
			(mulacc_7 x_51131 (succ_122 zero_125) x_51097 x_51098)
			(mulacc_7 x_51132 zero_125 (succ_122 zero_125) x_51098)
			(mulacc_7 x_51133 zero_125 x_51097 (succ_122 zero_125))
			(addacc_17 x_51134 x_51131 x_51132 x_51133)
			(addacc_17 x_51135 (succ_122 zero_125) (succ_122 x_51097) (succ_122 x_51098))
			(addacc_17 x_51136 x_51130 x_51134 x_51135)
			(plus_118 fail_27 (succ_122 zero_125) x_51136))
		(mulacc_7 fail_27 (succ_122 zero_125) (succ_122 x_51097) (succ_122 x_51098)))))
(assert (forall ((x_51139 Nat_476) (x_51140 Nat_476) (x_51141 Nat_476) (x_51142 Nat_476) (x_51143 Nat_476) (x_51144 Nat_476) (x_51145 Nat_476) (fail_27 Nat_476) (x_51098 Nat_476) (x_51097 Nat_476) (x_51096 Nat_476))
	(=>	(and (diseqNat_476 x_51096 zero_125)
			(mulacc_7 x_51139 x_51096 x_51097 x_51098)
			(mulacc_7 x_51140 (succ_122 zero_125) x_51097 x_51098)
			(mulacc_7 x_51141 x_51096 (succ_122 zero_125) x_51098)
			(mulacc_7 x_51142 x_51096 x_51097 (succ_122 zero_125))
			(addacc_17 x_51143 x_51140 x_51141 x_51142)
			(addacc_17 x_51144 (succ_122 x_51096) (succ_122 x_51097) (succ_122 x_51098))
			(addacc_17 x_51145 x_51139 x_51143 x_51144)
			(plus_118 fail_27 (succ_122 zero_125) x_51145))
		(mulacc_7 fail_27 (succ_122 x_51096) (succ_122 x_51097) (succ_122 x_51098)))))
(assert (forall ((x_51148 Nat_476) (x_51149 Nat_476) (x_51150 Nat_476) (x_51151 Nat_476) (x_51152 Nat_476) (x_51153 Nat_476) (x_51154 Nat_476) (fail_27 Nat_476) (x_51098 Nat_476))
	(=>	(and (diseqNat_476 x_51098 zero_125)
			(mulacc_7 x_51148 zero_125 zero_125 x_51098)
			(mulacc_7 x_51149 (succ_122 zero_125) zero_125 x_51098)
			(mulacc_7 x_51150 zero_125 (succ_122 zero_125) x_51098)
			(mulacc_7 x_51151 zero_125 zero_125 (succ_122 zero_125))
			(addacc_17 x_51152 x_51149 x_51150 x_51151)
			(addacc_17 x_51153 (succ_122 zero_125) (succ_122 zero_125) (succ_122 x_51098))
			(addacc_17 x_51154 x_51148 x_51152 x_51153)
			(plus_118 fail_27 (succ_122 zero_125) x_51154))
		(mulacc_7 fail_27 (succ_122 zero_125) (succ_122 zero_125) (succ_122 x_51098)))))
(assert (forall ((x_51157 Nat_476) (x_51158 Nat_476) (x_51159 Nat_476) (x_51160 Nat_476) (x_51161 Nat_476) (x_51162 Nat_476) (x_51163 Nat_476) (fail_27 Nat_476) (x_51098 Nat_476) (x_51097 Nat_476) (x_51096 Nat_476))
	(=>	(and (diseqNat_476 x_51096 zero_125)
			(mulacc_7 x_51157 x_51096 x_51097 x_51098)
			(mulacc_7 x_51158 (succ_122 zero_125) x_51097 x_51098)
			(mulacc_7 x_51159 x_51096 (succ_122 zero_125) x_51098)
			(mulacc_7 x_51160 x_51096 x_51097 (succ_122 zero_125))
			(addacc_17 x_51161 x_51158 x_51159 x_51160)
			(addacc_17 x_51162 (succ_122 x_51096) (succ_122 x_51097) (succ_122 x_51098))
			(addacc_17 x_51163 x_51157 x_51161 x_51162)
			(plus_118 fail_27 (succ_122 zero_125) x_51163))
		(mulacc_7 fail_27 (succ_122 x_51096) (succ_122 x_51097) (succ_122 x_51098)))))
(assert (forall ((x_51166 Nat_476) (x_51167 Nat_476) (x_51168 Nat_476) (x_51169 Nat_476) (x_51170 Nat_476) (x_51171 Nat_476) (x_51172 Nat_476) (fail_27 Nat_476) (x_51098 Nat_476) (x_51097 Nat_476))
	(=>	(and (diseqNat_476 x_51097 zero_125)
			(mulacc_7 x_51166 zero_125 x_51097 x_51098)
			(mulacc_7 x_51167 (succ_122 zero_125) x_51097 x_51098)
			(mulacc_7 x_51168 zero_125 (succ_122 zero_125) x_51098)
			(mulacc_7 x_51169 zero_125 x_51097 (succ_122 zero_125))
			(addacc_17 x_51170 x_51167 x_51168 x_51169)
			(addacc_17 x_51171 (succ_122 zero_125) (succ_122 x_51097) (succ_122 x_51098))
			(addacc_17 x_51172 x_51166 x_51170 x_51171)
			(plus_118 fail_27 (succ_122 zero_125) x_51172))
		(mulacc_7 fail_27 (succ_122 zero_125) (succ_122 x_51097) (succ_122 x_51098)))))
(assert (forall ((x_51175 Nat_476) (x_51176 Nat_476) (x_51177 Nat_476) (x_51178 Nat_476) (x_51179 Nat_476) (x_51180 Nat_476) (x_51181 Nat_476) (fail_27 Nat_476) (x_51098 Nat_476) (x_51097 Nat_476) (x_51096 Nat_476))
	(=>	(and (diseqNat_476 x_51096 zero_125)
			(mulacc_7 x_51175 x_51096 x_51097 x_51098)
			(mulacc_7 x_51176 (succ_122 zero_125) x_51097 x_51098)
			(mulacc_7 x_51177 x_51096 (succ_122 zero_125) x_51098)
			(mulacc_7 x_51178 x_51096 x_51097 (succ_122 zero_125))
			(addacc_17 x_51179 x_51176 x_51177 x_51178)
			(addacc_17 x_51180 (succ_122 x_51096) (succ_122 x_51097) (succ_122 x_51098))
			(addacc_17 x_51181 x_51175 x_51179 x_51180)
			(plus_118 fail_27 (succ_122 zero_125) x_51181))
		(mulacc_7 fail_27 (succ_122 x_51096) (succ_122 x_51097) (succ_122 x_51098)))))
(assert (forall ((x_51097 Nat_476) (x_51096 Nat_476))
	(mulacc_7 zero_125 (succ_122 x_51096) (succ_122 x_51097) zero_125)))
(assert (forall ((x_51096 Nat_476) (z_1697 Nat_476))
	(mulacc_7 zero_125 (succ_122 x_51096) zero_125 z_1697)))
(assert (forall ((y_1902 Nat_476) (z_1697 Nat_476))
	(mulacc_7 zero_125 zero_125 y_1902 z_1697)))
(assert (forall ((x_51187 Nat_476) (x_51188 Nat_476) (x_51099 Nat_476) (y_1903 Nat_476) (z_1698 Nat_476))
	(=>	(and true
			(diseqNat_476 x_51187 x_51188)
			(mulacc_7 x_51187 x_51099 y_1903 z_1698)
			(mulacc_7 x_51188 z_1698 x_51099 y_1903))
		false)))
(assert (forall ((x_51189 Nat_476) (x_51190 Nat_476) (x_51191 Nat_476) (x_51192 Nat_476) (x_51100 Nat_476) (y_1904 Nat_476) (z_1699 Nat_476))
	(=>	(and true
			(diseqNat_476 x_51190 x_51192)
			(plus_118 x_51189 y_1904 z_1699)
			(plus_118 x_51190 x_51100 x_51189)
			(plus_118 x_51191 x_51100 y_1904)
			(plus_118 x_51192 x_51191 z_1699))
		false)))
(assert (forall ((x_51193 Nat_476) (x_51194 Nat_476) (x_51101 Nat_476) (y_1905 Nat_476))
	(=>	(and true
			(diseqNat_476 x_51193 x_51194)
			(plus_118 x_51193 x_51101 y_1905)
			(plus_118 x_51194 y_1905 x_51101))
		false)))
(assert (forall ((x_51195 Nat_476) (x_51102 Nat_476))
	(=>	(and true
			(diseqNat_476 x_51195 x_51102)
			(plus_118 x_51195 x_51102 zero_125))
		false)))
(assert (forall ((x_51196 Nat_476) (x_51103 Nat_476))
	(=>	(and true
			(diseqNat_476 x_51196 x_51103)
			(plus_118 x_51196 zero_125 x_51103))
		false)))
(check-sat)
